\ Model Routes
\ LP format - for model browsing. Use MPS format to capture full model detail.
Maximize
  - 191.7153353028244 R{0,0} + 623.2046552982704 R{0,1}
   + 623.2046552982704 R{0,2} - 249.2301939667805 R{0,3}
   - 37.65529250152403 R{0,4} + 633.0024468603488 R{0,5}
   + 438.444658217614 R{0,6} + 96.79623890446209 R{0,7}
   + 568.2280287393723 R{0,8} - 256.140831891889 R{1,0}
   + 19.44273980161702 R{1,1} + 646.9304164667883 R{1,2}
   + 1058.153449337946 R{1,3} + 1340.676705990119 R{1,4}
   + 409.3344981286555 R{1,5} + 956.0554553366619 R{1,6}
   + 1198.881248318718 R{2,0} + 1198.881248318718 R{2,1}
   - 278.4443928850388 R{2,2} - 87.89167469767733 R{2,3}
   + 438.5969478700737 R{2,4} + 947.5724883564153 R{2,5}
   + 832.465065802254 R{2,6} + 851.6325612165692 R{2,7}
   + 832.465065802254 R{2,8} - 260.2482995389823 R{3,0}
   + 522.4398281754088 R{3,1} + 1230.485940651614 R{3,2}
   + 674.7567065366272 R{3,3} + 513.5616765185945 R{3,4}
   + 977.3915739282863 R{3,5} + 933.857947203529 R{3,6}
   - 242.5208875955131 R{4,0} + 1066.379443184683 R{4,1}
   + 1576.196574514046 R{4,2} + 1024.722006942731 R{4,3}
   + 666.3173843689169 R{4,4} - 231.9775664337766 R{5,0}
   + 281.6502712537329 R{5,1} + 866.1144926430113 R{5,2}
   + 1087.984891673543 R{5,3} + 888.7647577944601 R{5,4}
   + 215.2727558189625 R{5,5} - 231.1436095783099 R{6,0}
   + 989.9244493938872 R{6,1} + 1724.001712617132 R{6,2}
   + 2145.15674349011 R{6,3} + 1605.578397003217 R{6,4}
   + 1102.425187977525 R{6,5} + 1210.729933140944 R{6,6}
   + 1205.032350342185 R{6,7} + 2141.885706089561 R{6,8}
Subject To
 R00: R{0,0} <= 1
 R01: R{0,1} <= 1
 R02: R{0,2} <= 1
 R03: R{0,3} <= 1
 R04: R{0,4} <= 1
 R05: R{0,5} <= 1
 R06: R{0,6} <= 1
 R07: R{0,7} <= 1
 R08: R{0,8} <= 1
 R09: R{1,0} <= 1
 R010: R{1,1} <= 1
 R011: R{1,2} <= 1
 R012: R{1,3} <= 1
 R013: R{1,4} <= 1
 R014: R{1,5} <= 1
 R015: R{1,6} <= 1
 R016: R{2,0} <= 1
 R017: R{2,1} <= 1
 R018: R{2,2} <= 1
 R019: R{2,3} <= 1
 R020: R{2,4} <= 1
 R021: R{2,5} <= 1
 R022: R{2,6} <= 1
 R023: R{2,7} <= 1
 R024: R{2,8} <= 1
 R025: R{3,0} <= 1
 R026: R{3,1} <= 1
 R027: R{3,2} <= 1
 R028: R{3,3} <= 1
 R029: R{3,4} <= 1
 R030: R{3,5} <= 1
 R031: R{3,6} <= 1
 R032: R{4,0} <= 1
 R033: R{4,1} <= 1
 R034: R{4,2} <= 1
 R035: R{4,3} <= 1
 R036: R{4,4} <= 1
 R037: R{5,0} <= 1
 R038: R{5,1} <= 1
 R039: R{5,2} <= 1
 R040: R{5,3} <= 1
 R041: R{5,4} <= 1
 R042: R{5,5} <= 1
 R043: R{6,0} <= 1
 R044: R{6,1} <= 1
 R045: R{6,2} <= 1
 R046: R{6,3} <= 1
 R047: R{6,4} <= 1
 R048: R{6,5} <= 1
 R049: R{6,6} <= 1
 R050: R{6,7} <= 1
 R051: R{6,8} <= 1
 R1_0: R{0,0} + R{0,1} + R{0,2} + R{0,3} + R{0,4} + R{0,5} + R{0,6}
   + R{0,7} + R{0,8} <= 1
 R1_1: R{1,0} + R{1,1} + R{1,2} + R{1,3} + R{1,4} + R{1,5} + R{1,6} <= 1
 R1_2: R{2,0} + R{2,1} + R{2,2} + R{2,3} + R{2,4} + R{2,5} + R{2,6}
   + R{2,7} + R{2,8} <= 1
 R1_3: R{3,0} + R{3,1} + R{3,2} + R{3,3} + R{3,4} + R{3,5} + R{3,6} <= 1
 R1_4: R{4,0} + R{4,1} + R{4,2} + R{4,3} + R{4,4} <= 1
 R1_5: R{5,0} + R{5,1} + R{5,2} + R{5,3} + R{5,4} + R{5,5} <= 1
 R1_6: R{6,0} + R{6,1} + R{6,2} + R{6,3} + R{6,4} + R{6,5} + R{6,6}
   + R{6,7} + R{6,8} <= 1
 R2_0: <= 0
 R2_1: 10 R{3,1} + 10 R{3,2} + 10 R{3,3} + 10 R{3,5} + 10 R{3,6} <= 10
 R2_2: <= 0
 R2_3: 4 R{1,1} + 4 R{1,2} + 4 R{1,3} + 4 R{1,4} <= 4
 R2_4: <= 0
 R2_5: 5 R{0,4} + 5 R{0,5} <= 5
 R2_6: 10 R{6,1} + 10 R{6,2} + 10 R{6,3} + 10 R{6,4} + 10 R{6,8} <= 10
 R2_7: 6 R{1,1} + 6 R{1,5} <= 6
 R2_8: <= 0
 R2_9: 12 R{4,1} + 12 R{4,2} + 12 R{4,3} + 12 R{4,4} <= 12
 R2_10: 8 R{6,1} + 8 R{6,2} <= 8
 R2_11: <= 0
 R2_12: <= 0
 R2_13: <= 0
 R2_14: <= 0
 R2_15: 11 R{0,0} + 11 R{0,1} + 11 R{0,2} + 11 R{4,1} + 11 R{4,2} <= 11
 R2_16: <= 0
 R2_17: <= 0
 R2_18: <= 0
 R2_19: 11 R{1,6} + 11 R{4,1} + 11 R{4,2} + 11 R{4,3} <= 11
 R2_20: 13 R{1,5} + 13 R{2,4} + 13 R{2,7} + 13 R{5,3} + 13 R{5,4}
   + 13 R{5,5} <= 13
 R2_21: <= 0
 R2_22: <= 0
 R2_23: 14 R{0,1} + 14 R{0,2} + 14 R{0,6} + 14 R{0,8} + 14 R{2,0}
   + 14 R{2,1} + 14 R{2,5} + 14 R{2,6} + 14 R{2,8} + 14 R{6,3} + 14 R{6,4}
   + 14 R{6,8} <= 14
 R2_24: 10 R{3,1} + 10 R{3,2} + 10 R{3,4} + 10 R{3,6} <= 10
 R2_25: 13 R{4,1} + 13 R{4,2} + 13 R{4,3} <= 13
 R2_26: 6 R{5,1} + 6 R{5,2} <= 6
 R2_27: 5 R{1,4} + 5 R{3,3} + 5 R{6,1} + 5 R{6,2} + 5 R{6,3} + 5 R{6,4}
   + 5 R{6,5} + 5 R{6,7} + 5 R{6,8} <= 5
 R2_28: <= 0
 R2_29: <= 0
 R2_30: <= 0
 R2_31: <= 0
 R2_32: 7 R{5,1} + 7 R{5,2} + 7 R{5,3} <= 7
 R2_33: <= 0
 R2_34: <= 0
 R2_35: <= 0
 R2_36: <= 0
 R2_37: 5 R{3,1} + 5 R{3,2} + 5 R{3,3} + 5 R{3,5} + 5 R{3,6} <= 5
 R2_38: <= 0
 R2_39: <= 0
 R2_40: 15 R{2,3} + 15 R{2,4} <= 15
 R2_41: 5 R{1,3} + 5 R{1,4} + 5 R{3,4} + 5 R{3,6} + 5 R{4,4} + 5 R{6,7}
   <= 5
 R2_42: 4 R{2,3} + 4 R{2,4} <= 4
 R2_43: <= 0
 R2_44: <= 0
 R2_45: <= 0
 R2_46: 9 R{0,7} <= 9
 R2_47: 7 R{5,1} + 7 R{5,2} <= 7
 R2_48: 4 R{4,1} + 4 R{4,2} <= 4
 R2_49: <= 0
 R2_50: <= 0
 R2_51: 11 R{4,1} <= 11
 R2_52: <= 0
 R2_53: 13 R{4,1} + 13 R{4,2} <= 13
 R2_54: 9 R{3,1} + 9 R{3,2} + 9 R{3,3} + 9 R{3,4} + 9 R{3,5} + 9 R{3,6}
   <= 9
 R2_55: <= 8
 R2_56: 6 R{2,0} + 6 R{2,1} + 6 R{2,5} + 6 R{4,3} + 6 R{4,4} + 6 R{6,4}
   + 6 R{6,8} <= 6
 R2_57: <= 0
 R2_58: <= 0
 R2_59: <= 0
 R2_60: <= 0
 R2_61: 9 R{0,6} + 9 R{2,6} + 9 R{2,8} <= 9
 R2_62: <= 0
 R2_63: <= 0
 R2_64: <= 0
 R2_65: 5 R{2,0} + 5 R{2,1} + 5 R{6,1} + 5 R{6,2} + 5 R{6,3} + 5 R{6,5}
   + 5 R{6,6} + 5 R{6,7} <= 5
 R2_66: 7 R{6,1} + 7 R{6,2} + 7 R{6,3} + 7 R{6,4} + 7 R{6,5} + 7 R{6,7}
   <= 7
 R2_67: 3 R{0,1} + 3 R{0,2} + 3 R{0,8} + 3 R{2,0} + 3 R{2,1} + 3 R{2,5}
   + 3 R{2,6} + 3 R{2,8} + 3 R{6,5} + 3 R{6,6} + 3 R{6,7} <= 3
 R2_68: 6 R{1,1} + 6 R{1,2} + 6 R{1,3} + 6 R{1,5} + 6 R{1,6} <= 6
 R2_69: 7 R{4,1} + 7 R{4,2} + 7 R{4,3} <= 7
 R2_70: 11 R{1,1} + 11 R{1,2} + 11 R{1,6} <= 11
 R2_71: 7 R{6,1} + 7 R{6,2} + 7 R{6,3} + 7 R{6,4} + 7 R{6,5} + 7 R{6,6}
   + 7 R{6,8} <= 7
 R2_72: <= 0
 R2_73: <= 0
 R2_74: 5 R{5,1} <= 5
 R2_75: 8 R{6,1} + 8 R{6,2} + 8 R{6,3} + 8 R{6,4} + 8 R{6,5} + 8 R{6,6}
   + 8 R{6,8} <= 8
 R2_76: 12 R{0,4} + 12 R{0,5} <= 12
 R2_77: 7 R{0,5} + 7 R{1,2} + 7 R{1,3} + 7 R{1,4} + 7 R{1,6} + 7 R{2,7}
   + 7 R{3,2} + 7 R{3,5} + 7 R{4,2} + 7 R{5,2} + 7 R{5,3} + 7 R{5,4}
   + 7 R{6,2} + 7 R{6,3} + 7 R{6,6} + 7 R{6,8} <= 7
Bounds
End
